NAME : Random_TSP_Instance
TYPE : TSP
DIMENSION : 5
EDGE_WEIGHT_TYPE : EXPLICIT
EDGE_WEIGHT_FORMAT : FULL_MATRIX
NODE_COORD_TYPE : NO_COORDS
DISPLAY_DATA_TYPE: TWOD_DISPLAY
EDGE_WEIGHT_SECTION
0.000000 27.527737 23.440914 651975.916192 17.893877
27.527737 0.000000 20.883002 651975.916192 10.654970
23.440914 20.883002 0.000000 72.408984 651975.916192
86.711597 59.199022 72.408984 0.000000 69.423611
651975.916192 10.654970 651975.916192 69.423611 0.000000
EOF
